p cnf 25 162
-1 -5 2 -4 3 0
-9 -6 -10 -8 -7 0
-22 -25 21 -23 24 0
7 6 -10 -9 8 0
-7 6 10 -8 -9 0
-16 -19 18 -17 -20 0
-11 -13 12 14 15 0
-6 -7 8 9 -10 0
-11 -15 13 -12 -14 0
19 16 -17 18 -20 0
-18 17 16 -19 -20 0
-15 -14 13 12 11 0
18 -17 -16 20 19 0
-4 -3 -2 -1 -5 0
8 6 -9 10 7 0
15 14 13 11 -12 0
-23 24 22 25 -21 0
9 -8 -6 -7 -10 0
-23 -24 -21 -25 22 0
17 11 -2 -22 10 0
-18 -16 17 -20 19 0
-18 -23 15 -4 -8 0
6 -8 7 -10 -9 0
-4 1 2 5 3 0
20 17 -16 18 -19 0
14 -13 15 12 11 0
3 4 2 -1 5 0
-3 -5 -4 2 1 0
9 -7 6 -8 -10 0
17 19 20 18 -16 0
23 12 4 -20 -6 0
-20 -19 -16 -18 17 0
-12 -11 -14 -15 -13 0
-10 -7 -9 -8 6 0
10 -7 -8 -9 -6 0
17 -23 13 1 10 0
15 -12 13 -11 -14 0
-12 -13 15 14 -11 0
-2 4 5 -1 -3 0
-14 11 13 15 12 0
-1 -2 3 4 -5 0
18 20 16 19 -17 0
18 19 16 17 20 0
-6 -9 7 8 10 0
-6 9 10 7 8 0
-20 19 -16 18 -17 0
-4 5 -1 2 3 0
-16 -19 -17 -18 -20 0
16 -6 -24 -2 -15 0
13 -11 -15 12 14 0
23 -10 5 12 -16 0
-4 5 1 3 -2 0
7 8 -6 9 -10 0
10 -8 7 6 9 0
6 -8 -10 9 7 0
-17 20 16 -19 18 0
-4 -2 -3 1 5 0
1 -5 -3 2 4 0
16 17 -20 19 18 0
17 20 -18 -19 16 0
-25 -24 23 21 -22 0
1 4 2 -3 5 0
-22 -21 24 25 23 0
-18 19 -17 -20 16 0
10 8 -9 -7 6 0
-24 -21 25 -22 23 0
9 10 6 7 8 0
-2 -1 5 4 3 0
-12 13 11 15 -14 0
1 3 5 4 2 0
-21 23 24 -25 22 0
10 -8 -9 7 6 0
20 16 -18 -17 -19 0
-24 22 -21 -25 23 0
-11 -13 -14 15 12 0
15 14 -12 -13 11 0
-2 4 -1 -3 -5 0
-5 9 -12 -20 22 0
-7 10 9 -8 -6 0
8 -9 -7 -6 10 0
-5 1 -2 -3 4 0
9 -10 8 6 -7 0
-5 1 -4 2 3 0
16 17 18 -20 -19 0
2 7 22 -14 17 0
-6 10 7 -8 -9 0
-17 20 -19 -18 -16 0
11 -13 -15 12 -14 0
17 9 -14 21 1 0
4 -5 2 -1 3 0
-5 3 -2 -4 -1 0
22 -21 -24 25 23 0
-16 -19 17 20 -18 0
16 17 -20 19 -18 0
12 15 13 14 11 0
25 -22 -24 21 -23 0
-20 19 -17 -16 -18 0
-2 -24 15 17 7 0
2 4 -3 -1 5 0
-22 -21 -24 -25 -23 0
13 -12 -15 -14 11 0
-22 -21 -24 -23 25 0
-15 14 -12 -11 -13 0
9 7 -8 10 -6 0
25 -22 23 21 24 0
10 -7 -8 9 6 0
11 -15 14 13 -12 0
17 19 -18 20 -16 0
24 -21 -22 -23 -25 0
-24 -22 21 -25 -23 0
-4 -3 2 -1 -5 0
-24 8 -4 -14 17 0
21 23 -24 25 22 0
17 21 11 -4 -6 0
21 25 -22 -24 23 0
-2 -4 5 3 -1 0
13 1 8 23 -19 0
11 -7 -5 -16 22 0
-4 -1 -2 5 -3 0
13 -15 14 -12 -11 0
24 -14 -19 -1 8 0
4 3 -2 -5 1 0
25 22 24 -23 21 0
23 22 24 25 -21 0
-10 -9 8 -6 7 0
21 24 -25 22 23 0
-18 19 -17 20 16 0
-18 19 20 -16 -17 0
-6 -9 7 -10 -8 0
-19 20 -16 -17 18 0
-23 25 24 -21 -22 0
5 4 1 -2 3 0
-7 9 -6 10 8 0
24 15 -20 -9 -3 0
12 -11 -15 -13 14 0
-7 -9 -6 8 -10 0
24 25 -23 21 -22 0
24 22 21 -23 -25 0
-11 -12 15 -13 -14 0
24 13 -3 6 17 0
-25 -18 9 -14 2 0
21 22 -25 -24 23 0
2 -1 -4 5 -3 0
-15 7 -16 -21 2 0
17 -21 12 2 -6 0
-11 17 24 -4 9 0
13 -15 -11 12 -14 0
14 -19 6 -25 -2 0
-12 11 -13 -15 14 0
-17 -18 -19 16 -20 0
15 12 13 -14 -11 0
-14 -19 -5 -7 21 0
-25 23 -22 24 21 0
10 -13 -4 23 -16 0
12 7 -24 -3 -19 0
-13 -14 15 -12 11 0
1 -3 -5 -4 -2 0
11 -13 -15 -12 -14 0
-21 23 -24 -22 -25 0
-2 1 5 4 -3 0
6 -9 8 -10 -7 0
-16 -23 14 10 -2 0
